33D32945 STP File, STP Format Version 1.0

SECTION Comments
Name "dodecahedron"
Problem "Euclidean Steiner Tree Problem"
Remark "Converted automatically"
END

SECTION Graph
Nodes 20
END

SECTION Coordinates
DDD 1 0.28868000000000 0.28868000000000 0.28868000000000 
DDD 2 0.28868000000000 0.28868000000000 -0.28868000000000 
DDD 3 0.28868000000000 -0.28868000000000 0.28868000000000 
DDD 4 0.28868000000000 -0.28868000000000 -0.28868000000000 
DDD 5 -0.28868000000000 0.28868000000000 0.28868000000000 
DDD 6 -0.28868000000000 0.28868000000000 -0.28868000000000 
DDD 7 -0.28868000000000 -0.28868000000000 0.28868000000000 
DDD 8 -0.28868000000000 -0.28868000000000 -0.28868000000000 
DDD 9 0.17841000000000 0.46709000000000 0.00000000000000 
DDD 10 -0.17841000000000 0.46709000000000 0.00000000000000 
DDD 11 0.17841000000000 -0.46709000000000 0.00000000000000 
DDD 12 -0.17841000000000 -0.46709000000000 0.00000000000000 
DDD 13 0.46709000000000 0.00000000000000 0.17841000000000 
DDD 14 -0.46709000000000 0.00000000000000 0.17841000000000 
DDD 15 0.46709000000000 0.00000000000000 -0.17841000000000 
DDD 16 -0.46709000000000 0.00000000000000 -0.17841000000000 
DDD 17 0.00000000000000 0.17841000000000 0.46709000000000 
DDD 18 0.00000000000000 -0.17841000000000 0.46709000000000 
DDD 19 0.00000000000000 0.17841000000000 -0.46709000000000 
DDD 20 0.00000000000000 -0.17841000000000 -0.46709000000000 
END

EOF
